Results/Experiment 2 Results/New Benchmark/output_p1_0.25_p2_0.00_n_40_08.lp
clingo version 5.4.0
Reading from tempSRTISolver.lp ...
Solving...
Answer: 1
matched(4,2) matched(2,4) matched(3,5) matched(6,7) matched(1,8) matched(12,9) matched(18,14) matched(19,15) matched(20,17) matched(14,18) matched(15,19) matched(17,20) matched(16,13) matched(23,22) matched(26,24) matched(24,26) matched(21,27) matched(36,34) matched(39,38) matched(38,39) matched(40,33) matched(5,3) matched(7,6) matched(8,1) matched(9,12) matched(22,23) matched(30,31) matched(29,32) matched(32,29) matched(34,36) matched(35,37) matched(11,10) matched(28,25) matched(27,21) matched(31,30) matched(37,35) matched(13,16) matched(33,40) matched(10,11) matched(25,28)
Optimization: 441
Answer: 2
matched(4,2) matched(2,4) matched(3,5) matched(6,7) matched(1,8) matched(12,9) matched(18,14) matched(19,15) matched(20,17) matched(14,18) matched(15,19) matched(17,20) matched(16,13) matched(26,22) matched(21,24) matched(22,26) matched(23,27) matched(36,34) matched(39,38) matched(38,39) matched(40,33) matched(5,3) matched(7,6) matched(8,1) matched(9,12) matched(27,23) matched(30,31) matched(29,32) matched(32,29) matched(34,36) matched(35,37) matched(11,10) matched(28,25) matched(24,21) matched(31,30) matched(37,35) matched(13,16) matched(33,40) matched(10,11) matched(25,28)
Optimization: 415
Answer: 3
matched(4,2) matched(2,4) matched(3,5) matched(6,7) matched(1,8) matched(12,9) matched(18,14) matched(19,15) matched(20,17) matched(14,18) matched(15,19) matched(17,20) matched(16,13) matched(23,22) matched(21,24) matched(27,26) matched(26,27) matched(36,34) matched(39,38) matched(38,39) matched(40,33) matched(5,3) matched(7,6) matched(8,1) matched(9,12) matched(22,23) matched(30,31) matched(29,32) matched(32,29) matched(34,36) matched(35,37) matched(11,10) matched(28,25) matched(24,21) matched(31,30) matched(37,35) matched(13,16) matched(33,40) matched(10,11) matched(25,28)
Optimization: 413
Answer: 4
matched(4,2) matched(2,4) matched(3,5) matched(6,7) matched(1,8) matched(12,9) matched(18,14) matched(19,15) matched(20,17) matched(14,18) matched(15,19) matched(17,20) matched(16,13) matched(26,22) matched(25,24) matched(22,26) matched(23,27) matched(36,34) matched(39,38) matched(38,39) matched(40,33) matched(5,3) matched(7,6) matched(8,1) matched(9,12) matched(27,23) matched(30,31) matched(29,32) matched(32,29) matched(34,36) matched(35,37) matched(11,10) matched(24,25) matched(28,21) matched(31,30) matched(37,35) matched(13,16) matched(33,40) matched(10,11) matched(21,28)
Optimization: 410
Answer: 5
matched(4,2) matched(2,4) matched(3,5) matched(6,7) matched(1,8) matched(12,9) matched(18,14) matched(19,15) matched(20,17) matched(14,18) matched(15,19) matched(17,20) matched(16,13) matched(23,22) matched(25,24) matched(27,26) matched(26,27) matched(36,34) matched(39,38) matched(38,39) matched(40,33) matched(5,3) matched(7,6) matched(8,1) matched(9,12) matched(22,23) matched(30,31) matched(29,32) matched(32,29) matched(34,36) matched(35,37) matched(11,10) matched(24,25) matched(28,21) matched(31,30) matched(37,35) matched(13,16) matched(33,40) matched(10,11) matched(21,28)
Optimization: 408
Answer: 6
matched(4,2) matched(2,4) matched(3,5) matched(6,7) matched(1,8) matched(12,9) matched(18,14) matched(19,15) matched(20,17) matched(14,18) matched(15,19) matched(17,20) matched(16,13) matched(24,22) matched(22,24) matched(27,26) matched(26,27) matched(36,34) matched(39,38) matched(38,39) matched(40,33) matched(5,3) matched(7,6) matched(8,1) matched(9,12) matched(25,23) matched(30,31) matched(29,32) matched(32,29) matched(34,36) matched(35,37) matched(11,10) matched(23,25) matched(28,21) matched(31,30) matched(37,35) matched(13,16) matched(33,40) matched(10,11) matched(21,28)
Optimization: 406
Answer: 7
matched(4,2) matched(2,4) matched(3,5) matched(6,7) matched(1,8) matched(12,9) matched(18,14) matched(19,15) matched(20,17) matched(14,18) matched(15,19) matched(17,20) matched(16,13) matched(26,22) matched(25,24) matched(22,26) matched(23,27) matched(36,34) matched(39,38) matched(38,39) matched(40,33) matched(5,3) matched(7,6) matched(8,1) matched(9,12) matched(27,23) matched(32,31) matched(31,32) matched(30,29) matched(34,36) matched(35,37) matched(11,10) matched(24,25) matched(28,21) matched(29,30) matched(37,35) matched(13,16) matched(33,40) matched(10,11) matched(21,28)
Optimization: 396
Answer: 8
matched(4,2) matched(2,4) matched(3,5) matched(6,7) matched(1,8) matched(12,9) matched(18,14) matched(19,15) matched(20,17) matched(14,18) matched(15,19) matched(17,20) matched(16,13) matched(24,22) matched(22,24) matched(27,26) matched(26,27) matched(36,34) matched(39,38) matched(38,39) matched(40,33) matched(5,3) matched(7,6) matched(8,1) matched(9,12) matched(25,23) matched(32,31) matched(31,32) matched(30,29) matched(34,36) matched(35,37) matched(11,10) matched(23,25) matched(28,21) matched(29,30) matched(37,35) matched(13,16) matched(33,40) matched(10,11) matched(21,28)
Optimization: 392
Answer: 9
matched(6,2) matched(5,4) matched(4,5) matched(3,7) matched(1,8) matched(12,9) matched(16,14) matched(17,15) matched(15,17) matched(19,18) matched(18,19) matched(13,20) matched(20,13) matched(24,22) matched(22,24) matched(27,26) matched(26,27) matched(36,34) matched(39,38) matched(38,39) matched(40,33) matched(7,3) matched(2,6) matched(8,1) matched(9,12) matched(25,23) matched(32,31) matched(31,32) matched(30,29) matched(34,36) matched(35,37) matched(11,10) matched(23,25) matched(28,21) matched(29,30) matched(37,35) matched(14,16) matched(33,40) matched(10,11) matched(21,28)
Optimization: 386
Answer: 10
matched(4,2) matched(2,4) matched(3,5) matched(6,7) matched(1,8) matched(12,9) matched(16,14) matched(17,15) matched(15,17) matched(19,18) matched(18,19) matched(13,20) matched(20,13) matched(24,22) matched(22,24) matched(27,26) matched(26,27) matched(36,34) matched(39,38) matched(38,39) matched(40,33) matched(5,3) matched(7,6) matched(8,1) matched(9,12) matched(25,23) matched(32,31) matched(31,32) matched(30,29) matched(34,36) matched(35,37) matched(11,10) matched(23,25) matched(28,21) matched(29,30) matched(37,35) matched(14,16) matched(33,40) matched(10,11) matched(21,28)
Optimization: 385
OPTIMUM FOUND

Models       : 10
  Optimum    : yes
Optimization : 385
Calls        : 1
Time         : 0.265s (Solving: 0.07s 1st Model: 0.00s Unsat: 0.06s)
CPU Time     : 0.262s
